p wcnf 28 48 37
1 -1 0
1 -2 0
1 -3 0
1 -4 0
1 -5 0
1 -6 0
1 -7 0
1 -8 0
1 -9 0
1 -10 0
1 -11 0
1 -12 0
1 -13 0
1 -14 0
1 -15 0
1 -16 0
1 -17 0
1 -18 0
1 -19 0
1 -20 0
1 -21 0
1 -22 0
1 -23 0
1 -24 0
3 -25 0
3 -26 0
3 -27 0
3 -28 0
37 25 1 4 6 7 0
37 25 9 12 14 15 0
37 25 17 20 22 23 0
37 26 3 5 6 8 0
37 26 11 13 14 16 0
37 26 19 21 22 24 0
37 27 29 30 31 0
37 -29 -3 0
37 -29 -4 0
37 -29 -5 0
37 -29 -6 0
37 -30 -11 0
37 -30 -12 0
37 -30 -13 0
37 -30 -14 0
37 -31 -19 0
37 -31 -20 0
37 -31 -21 0
37 -31 -22 0
37 28 32 33 34 0
37 -32 -1 0
37 -32 -2 0
37 -32 -3 0
37 -32 -4 0
37 -33 -9 0
37 -33 -10 0
37 -33 -11 0
37 -33 -12 0
37 -34 -17 0
37 -34 -18 0
37 -34 -19 0
37 -34 -20 0
